p cnf 703 2379 
-1  2 0 
-3  2 0 
 1  3 -2 0 
 1 -4 0 
 3 -4 0 
-1 -3  4 0 
 2 -4 0 
-5  6 0 
-7  6 0 
 5  7 -6 0 
 5 -8 0 
 7 -8 0 
-5 -7  8 0 
 6 -8 0 
-2  9 0 
-8  9 0 
 2  8 -9 0 
 2 -10 0 
 8 -10 0 
-2 -8  10 0 
 9 -10 0 
-4  11 0 
-6  11 0 
 4  6 -11 0 
 4 -12 0 
 6 -12 0 
-4 -6  12 0 
 11 -12 0 
-9  13 0 
-11  13 0 
 9  11 -13 0 
 9 -14 0 
 11 -14 0 
-9 -11  14 0 
 13 -14 0 
-12  15 0 
-10  15 0 
 12  10 -15 0 
 12 -16 0 
 10 -16 0 
-12 -10  16 0 
 15 -16 0 
-17  18 0 
-19  18 0 
 17  19 -18 0 
 17 -20 0 
 19 -20 0 
-17 -19  20 0 
 18 -20 0 
-21  22 0 
-23  22 0 
 21  23 -22 0 
 21 -24 0 
 23 -24 0 
-21 -23  24 0 
 22 -24 0 
-18  25 0 
-24  25 0 
 18  24 -25 0 
 18 -26 0 
 24 -26 0 
-18 -24  26 0 
 25 -26 0 
-20  27 0 
-22  27 0 
 20  22 -27 0 
 20 -28 0 
 22 -28 0 
-20 -22  28 0 
 27 -28 0 
-25  29 0 
-27  29 0 
 25  27 -29 0 
 25 -30 0 
 27 -30 0 
-25 -27  30 0 
 29 -30 0 
-28  31 0 
-26  31 0 
 28  26 -31 0 
 28 -32 0 
 26 -32 0 
-28 -26  32 0 
 31 -32 0 
-13  33 0 
-32  33 0 
 13  32 -33 0 
 13 -34 0 
 32 -34 0 
-13 -32  34 0 
 33 -34 0 
-14  35 0 
-31  35 0 
 14  31 -35 0 
 14 -36 0 
 31 -36 0 
-14 -31  36 0 
 35 -36 0 
-15  37 0 
-30  37 0 
 15  30 -37 0 
 15 -38 0 
 30 -38 0 
-15 -30  38 0 
 37 -38 0 
-16  39 0 
-29  39 0 
 16  29 -39 0 
 16 -40 0 
 29 -40 0 
-16 -29  40 0 
 39 -40 0 
-33  41 0 
-37  41 0 
 33  37 -41 0 
 33 -42 0 
 37 -42 0 
-33 -37  42 0 
 41 -42 0 
-35  43 0 
-39  43 0 
 35  39 -43 0 
 35 -44 0 
 39 -44 0 
-35 -39  44 0 
 43 -44 0 
-41  45 0 
-43  45 0 
 41  43 -45 0 
 41 -46 0 
 43 -46 0 
-41 -43  46 0 
 45 -46 0 
-42  47 0 
-44  47 0 
 42  44 -47 0 
 42 -48 0 
 44 -48 0 
-42 -44  48 0 
 47 -48 0 
-40  49 0 
-36  49 0 
 40  36 -49 0 
 40 -50 0 
 36 -50 0 
-40 -36  50 0 
 49 -50 0 
-38  51 0 
-34  51 0 
 38  34 -51 0 
 38 -52 0 
 34 -52 0 
-38 -34  52 0 
 51 -52 0 
-49  53 0 
-51  53 0 
 49  51 -53 0 
 49 -54 0 
 51 -54 0 
-49 -51  54 0 
 53 -54 0 
-50  55 0 
-52  55 0 
 50  52 -55 0 
 50 -56 0 
 52 -56 0 
-50 -52  56 0 
 55 -56 0 
-57  58 0 
-59  58 0 
 57  59 -58 0 
 57 -60 0 
 59 -60 0 
-57 -59  60 0 
 58 -60 0 
-61  62 0 
-63  62 0 
 61  63 -62 0 
 61 -64 0 
 63 -64 0 
-61 -63  64 0 
 62 -64 0 
-58  65 0 
-64  65 0 
 58  64 -65 0 
 58 -66 0 
 64 -66 0 
-58 -64  66 0 
 65 -66 0 
-60  67 0 
-62  67 0 
 60  62 -67 0 
 60 -68 0 
 62 -68 0 
-60 -62  68 0 
 67 -68 0 
-65  69 0 
-67  69 0 
 65  67 -69 0 
 65 -70 0 
 67 -70 0 
-65 -67  70 0 
 69 -70 0 
-68  71 0 
-66  71 0 
 68  66 -71 0 
 68 -72 0 
 66 -72 0 
-68 -66  72 0 
 71 -72 0 
-73  74 0 
-75  74 0 
 73  75 -74 0 
 73 -76 0 
 75 -76 0 
-73 -75  76 0 
 74 -76 0 
-77  78 0 
-79  78 0 
 77  79 -78 0 
 77 -80 0 
 79 -80 0 
-77 -79  80 0 
 78 -80 0 
-74  81 0 
-80  81 0 
 74  80 -81 0 
 74 -82 0 
 80 -82 0 
-74 -80  82 0 
 81 -82 0 
-76  83 0 
-78  83 0 
 76  78 -83 0 
 76 -84 0 
 78 -84 0 
-76 -78  84 0 
 83 -84 0 
-81  85 0 
-83  85 0 
 81  83 -85 0 
 81 -86 0 
 83 -86 0 
-81 -83  86 0 
 85 -86 0 
-84  87 0 
-82  87 0 
 84  82 -87 0 
 84 -88 0 
 82 -88 0 
-84 -82  88 0 
 87 -88 0 
-69  89 0 
-88  89 0 
 69  88 -89 0 
 69 -90 0 
 88 -90 0 
-69 -88  90 0 
 89 -90 0 
-70  91 0 
-87  91 0 
 70  87 -91 0 
 70 -92 0 
 87 -92 0 
-70 -87  92 0 
 91 -92 0 
-71  93 0 
-86  93 0 
 71  86 -93 0 
 71 -94 0 
 86 -94 0 
-71 -86  94 0 
 93 -94 0 
-72  95 0 
-85  95 0 
 72  85 -95 0 
 72 -96 0 
 85 -96 0 
-72 -85  96 0 
 95 -96 0 
-89  97 0 
-93  97 0 
 89  93 -97 0 
 89 -98 0 
 93 -98 0 
-89 -93  98 0 
 97 -98 0 
-91  99 0 
-95  99 0 
 91  95 -99 0 
 91 -100 0 
 95 -100 0 
-91 -95  100 0 
 99 -100 0 
-97  101 0 
-99  101 0 
 97  99 -101 0 
 97 -102 0 
 99 -102 0 
-97 -99  102 0 
 101 -102 0 
-98  103 0 
-100  103 0 
 98  100 -103 0 
 98 -104 0 
 100 -104 0 
-98 -100  104 0 
 103 -104 0 
-96  105 0 
-92  105 0 
 96  92 -105 0 
 96 -106 0 
 92 -106 0 
-96 -92  106 0 
 105 -106 0 
-94  107 0 
-90  107 0 
 94  90 -107 0 
 94 -108 0 
 90 -108 0 
-94 -90  108 0 
 107 -108 0 
-105  109 0 
-107  109 0 
 105  107 -109 0 
 105 -110 0 
 107 -110 0 
-105 -107  110 0 
 109 -110 0 
-106  111 0 
-108  111 0 
 106  108 -111 0 
 106 -112 0 
 108 -112 0 
-106 -108  112 0 
 111 -112 0 
-45  113 0 
-112  113 0 
 45  112 -113 0 
 45 -114 0 
 112 -114 0 
-45 -112  114 0 
 113 -114 0 
-46  115 0 
-111  115 0 
 46  111 -115 0 
 46 -116 0 
 111 -116 0 
-46 -111  116 0 
 115 -116 0 
-47  117 0 
-110  117 0 
 47  110 -117 0 
 47 -118 0 
 110 -118 0 
-47 -110  118 0 
 117 -118 0 
-48  119 0 
-109  119 0 
 48  109 -119 0 
 48 -120 0 
 109 -120 0 
-48 -109  120 0 
 119 -120 0 
-53  121 0 
-104  121 0 
 53  104 -121 0 
 53 -122 0 
 104 -122 0 
-53 -104  122 0 
 121 -122 0 
-54  123 0 
-103  123 0 
 54  103 -123 0 
 54 -124 0 
 103 -124 0 
-54 -103  124 0 
 123 -124 0 
-55  125 0 
-102  125 0 
 55  102 -125 0 
 55 -126 0 
 102 -126 0 
-55 -102  126 0 
 125 -126 0 
-56  127 0 
-101  127 0 
 56  101 -127 0 
 56 -128 0 
 101 -128 0 
-56 -101  128 0 
 127 -128 0 
-113  129 0 
-121  129 0 
 113  121 -129 0 
 113 -130 0 
 121 -130 0 
-113 -121  130 0 
 129 -130 0 
-115  131 0 
-123  131 0 
 115  123 -131 0 
 115 -132 0 
 123 -132 0 
-115 -123  132 0 
 131 -132 0 
-117  133 0 
-125  133 0 
 117  125 -133 0 
 117 -134 0 
 125 -134 0 
-117 -125  134 0 
 133 -134 0 
-119  135 0 
-127  135 0 
 119  127 -135 0 
 119 -136 0 
 127 -136 0 
-119 -127  136 0 
 135 -136 0 
-129  137 0 
-133  137 0 
 129  133 -137 0 
 129 -138 0 
 133 -138 0 
-129 -133  138 0 
 137 -138 0 
-131  139 0 
-135  139 0 
 131  135 -139 0 
 131 -140 0 
 135 -140 0 
-131 -135  140 0 
 139 -140 0 
-137  141 0 
-139  141 0 
 137  139 -141 0 
 137 -142 0 
 139 -142 0 
-137 -139  142 0 
 141 -142 0 
-138  143 0 
-140  143 0 
 138  140 -143 0 
 138 -144 0 
 140 -144 0 
-138 -140  144 0 
 143 -144 0 
-130  145 0 
-134  145 0 
 130  134 -145 0 
 130 -146 0 
 134 -146 0 
-130 -134  146 0 
 145 -146 0 
-132  147 0 
-136  147 0 
 132  136 -147 0 
 132 -148 0 
 136 -148 0 
-132 -136  148 0 
 147 -148 0 
-145  149 0 
-147  149 0 
 145  147 -149 0 
 145 -150 0 
 147 -150 0 
-145 -147  150 0 
 149 -150 0 
-146  151 0 
-148  151 0 
 146  148 -151 0 
 146 -152 0 
 148 -152 0 
-146 -148  152 0 
 151 -152 0 
-128  153 0 
-120  153 0 
 128  120 -153 0 
 128 -154 0 
 120 -154 0 
-128 -120  154 0 
 153 -154 0 
-126  155 0 
-118  155 0 
 126  118 -155 0 
 126 -156 0 
 118 -156 0 
-126 -118  156 0 
 155 -156 0 
-124  157 0 
-116  157 0 
 124  116 -157 0 
 124 -158 0 
 116 -158 0 
-124 -116  158 0 
 157 -158 0 
-122  159 0 
-114  159 0 
 122  114 -159 0 
 122 -160 0 
 114 -160 0 
-122 -114  160 0 
 159 -160 0 
-153  161 0 
-157  161 0 
 153  157 -161 0 
 153 -162 0 
 157 -162 0 
-153 -157  162 0 
 161 -162 0 
-155  163 0 
-159  163 0 
 155  159 -163 0 
 155 -164 0 
 159 -164 0 
-155 -159  164 0 
 163 -164 0 
-161  165 0 
-163  165 0 
 161  163 -165 0 
 161 -166 0 
 163 -166 0 
-161 -163  166 0 
 165 -166 0 
-162  167 0 
-164  167 0 
 162  164 -167 0 
 162 -168 0 
 164 -168 0 
-162 -164  168 0 
 167 -168 0 
-154  169 0 
-158  169 0 
 154  158 -169 0 
 154 -170 0 
 158 -170 0 
-154 -158  170 0 
 169 -170 0 
-156  171 0 
-160  171 0 
 156  160 -171 0 
 156 -172 0 
 160 -172 0 
-156 -160  172 0 
 171 -172 0 
-169  173 0 
-171  173 0 
 169  171 -173 0 
 169 -174 0 
 171 -174 0 
-169 -171  174 0 
 173 -174 0 
-170  175 0 
-172  175 0 
 170  172 -175 0 
 170 -176 0 
 172 -176 0 
-170 -172  176 0 
 175 -176 0 
-177  178 0 
-179  178 0 
 177  179 -178 0 
 177 -180 0 
 179 -180 0 
-177 -179  180 0 
 178 -180 0 
-181  182 0 
-183  182 0 
 181  183 -182 0 
 181 -184 0 
 183 -184 0 
-181 -183  184 0 
 182 -184 0 
-178  185 0 
-184  185 0 
 178  184 -185 0 
 178 -186 0 
 184 -186 0 
-178 -184  186 0 
 185 -186 0 
-180  187 0 
-182  187 0 
 180  182 -187 0 
 180 -188 0 
 182 -188 0 
-180 -182  188 0 
 187 -188 0 
-185  189 0 
-187  189 0 
 185  187 -189 0 
 185 -190 0 
 187 -190 0 
-185 -187  190 0 
 189 -190 0 
-188  191 0 
-186  191 0 
 188  186 -191 0 
 188 -192 0 
 186 -192 0 
-188 -186  192 0 
 191 -192 0 
-193  194 0 
-195  194 0 
 193  195 -194 0 
 193 -196 0 
 195 -196 0 
-193 -195  196 0 
 194 -196 0 
-197  198 0 
-199  198 0 
 197  199 -198 0 
 197 -200 0 
 199 -200 0 
-197 -199  200 0 
 198 -200 0 
-194  201 0 
-200  201 0 
 194  200 -201 0 
 194 -202 0 
 200 -202 0 
-194 -200  202 0 
 201 -202 0 
-196  203 0 
-198  203 0 
 196  198 -203 0 
 196 -204 0 
 198 -204 0 
-196 -198  204 0 
 203 -204 0 
-201  205 0 
-203  205 0 
 201  203 -205 0 
 201 -206 0 
 203 -206 0 
-201 -203  206 0 
 205 -206 0 
-204  207 0 
-202  207 0 
 204  202 -207 0 
 204 -208 0 
 202 -208 0 
-204 -202  208 0 
 207 -208 0 
-189  209 0 
-208  209 0 
 189  208 -209 0 
 189 -210 0 
 208 -210 0 
-189 -208  210 0 
 209 -210 0 
-190  211 0 
-207  211 0 
 190  207 -211 0 
 190 -212 0 
 207 -212 0 
-190 -207  212 0 
 211 -212 0 
-191  213 0 
-206  213 0 
 191  206 -213 0 
 191 -214 0 
 206 -214 0 
-191 -206  214 0 
 213 -214 0 
-192  215 0 
-205  215 0 
 192  205 -215 0 
 192 -216 0 
 205 -216 0 
-192 -205  216 0 
 215 -216 0 
-209  217 0 
-213  217 0 
 209  213 -217 0 
 209 -218 0 
 213 -218 0 
-209 -213  218 0 
 217 -218 0 
-211  219 0 
-215  219 0 
 211  215 -219 0 
 211 -220 0 
 215 -220 0 
-211 -215  220 0 
 219 -220 0 
-217  221 0 
-219  221 0 
 217  219 -221 0 
 217 -222 0 
 219 -222 0 
-217 -219  222 0 
 221 -222 0 
-218  223 0 
-220  223 0 
 218  220 -223 0 
 218 -224 0 
 220 -224 0 
-218 -220  224 0 
 223 -224 0 
-216  225 0 
-212  225 0 
 216  212 -225 0 
 216 -226 0 
 212 -226 0 
-216 -212  226 0 
 225 -226 0 
-214  227 0 
-210  227 0 
 214  210 -227 0 
 214 -228 0 
 210 -228 0 
-214 -210  228 0 
 227 -228 0 
-225  229 0 
-227  229 0 
 225  227 -229 0 
 225 -230 0 
 227 -230 0 
-225 -227  230 0 
 229 -230 0 
-226  231 0 
-228  231 0 
 226  228 -231 0 
 226 -232 0 
 228 -232 0 
-226 -228  232 0 
 231 -232 0 
-233  234 0 
-235  234 0 
 233  235 -234 0 
 233 -236 0 
 235 -236 0 
-233 -235  236 0 
 234 -236 0 
-237  238 0 
-239  238 0 
 237  239 -238 0 
 237 -240 0 
 239 -240 0 
-237 -239  240 0 
 238 -240 0 
-234  241 0 
-240  241 0 
 234  240 -241 0 
 234 -242 0 
 240 -242 0 
-234 -240  242 0 
 241 -242 0 
-236  243 0 
-238  243 0 
 236  238 -243 0 
 236 -244 0 
 238 -244 0 
-236 -238  244 0 
 243 -244 0 
-241  245 0 
-243  245 0 
 241  243 -245 0 
 241 -246 0 
 243 -246 0 
-241 -243  246 0 
 245 -246 0 
-244  247 0 
-242  247 0 
 244  242 -247 0 
 244 -248 0 
 242 -248 0 
-244 -242  248 0 
 247 -248 0 
-249  250 0 
-251  250 0 
 249  251 -250 0 
 249 -252 0 
 251 -252 0 
-249 -251  252 0 
 250 -252 0 
-253  254 0 
-255  254 0 
 253  255 -254 0 
 253 -256 0 
 255 -256 0 
-253 -255  256 0 
 254 -256 0 
-250  257 0 
-256  257 0 
 250  256 -257 0 
 250 -258 0 
 256 -258 0 
-250 -256  258 0 
 257 -258 0 
-252  259 0 
-254  259 0 
 252  254 -259 0 
 252 -260 0 
 254 -260 0 
-252 -254  260 0 
 259 -260 0 
-257  261 0 
-259  261 0 
 257  259 -261 0 
 257 -262 0 
 259 -262 0 
-257 -259  262 0 
 261 -262 0 
-260  263 0 
-258  263 0 
 260  258 -263 0 
 260 -264 0 
 258 -264 0 
-260 -258  264 0 
 263 -264 0 
-245  265 0 
-264  265 0 
 245  264 -265 0 
 245 -266 0 
 264 -266 0 
-245 -264  266 0 
 265 -266 0 
-246  267 0 
-263  267 0 
 246  263 -267 0 
 246 -268 0 
 263 -268 0 
-246 -263  268 0 
 267 -268 0 
-247  269 0 
-262  269 0 
 247  262 -269 0 
 247 -270 0 
 262 -270 0 
-247 -262  270 0 
 269 -270 0 
-248  271 0 
-261  271 0 
 248  261 -271 0 
 248 -272 0 
 261 -272 0 
-248 -261  272 0 
 271 -272 0 
-265  273 0 
-269  273 0 
 265  269 -273 0 
 265 -274 0 
 269 -274 0 
-265 -269  274 0 
 273 -274 0 
-267  275 0 
-271  275 0 
 267  271 -275 0 
 267 -276 0 
 271 -276 0 
-267 -271  276 0 
 275 -276 0 
-273  277 0 
-275  277 0 
 273  275 -277 0 
 273 -278 0 
 275 -278 0 
-273 -275  278 0 
 277 -278 0 
-274  279 0 
-276  279 0 
 274  276 -279 0 
 274 -280 0 
 276 -280 0 
-274 -276  280 0 
 279 -280 0 
-272  281 0 
-268  281 0 
 272  268 -281 0 
 272 -282 0 
 268 -282 0 
-272 -268  282 0 
 281 -282 0 
-270  283 0 
-266  283 0 
 270  266 -283 0 
 270 -284 0 
 266 -284 0 
-270 -266  284 0 
 283 -284 0 
-281  285 0 
-283  285 0 
 281  283 -285 0 
 281 -286 0 
 283 -286 0 
-281 -283  286 0 
 285 -286 0 
-282  287 0 
-284  287 0 
 282  284 -287 0 
 282 -288 0 
 284 -288 0 
-282 -284  288 0 
 287 -288 0 
-221  289 0 
-288  289 0 
 221  288 -289 0 
 221 -290 0 
 288 -290 0 
-221 -288  290 0 
 289 -290 0 
-222  291 0 
-287  291 0 
 222  287 -291 0 
 222 -292 0 
 287 -292 0 
-222 -287  292 0 
 291 -292 0 
-223  293 0 
-286  293 0 
 223  286 -293 0 
 223 -294 0 
 286 -294 0 
-223 -286  294 0 
 293 -294 0 
-224  295 0 
-285  295 0 
 224  285 -295 0 
 224 -296 0 
 285 -296 0 
-224 -285  296 0 
 295 -296 0 
-229  297 0 
-280  297 0 
 229  280 -297 0 
 229 -298 0 
 280 -298 0 
-229 -280  298 0 
 297 -298 0 
-230  299 0 
-279  299 0 
 230  279 -299 0 
 230 -300 0 
 279 -300 0 
-230 -279  300 0 
 299 -300 0 
-231  301 0 
-278  301 0 
 231  278 -301 0 
 231 -302 0 
 278 -302 0 
-231 -278  302 0 
 301 -302 0 
-232  303 0 
-277  303 0 
 232  277 -303 0 
 232 -304 0 
 277 -304 0 
-232 -277  304 0 
 303 -304 0 
-289  305 0 
-297  305 0 
 289  297 -305 0 
 289 -306 0 
 297 -306 0 
-289 -297  306 0 
 305 -306 0 
-291  307 0 
-299  307 0 
 291  299 -307 0 
 291 -308 0 
 299 -308 0 
-291 -299  308 0 
 307 -308 0 
-293  309 0 
-301  309 0 
 293  301 -309 0 
 293 -310 0 
 301 -310 0 
-293 -301  310 0 
 309 -310 0 
-295  311 0 
-303  311 0 
 295  303 -311 0 
 295 -312 0 
 303 -312 0 
-295 -303  312 0 
 311 -312 0 
-305  313 0 
-309  313 0 
 305  309 -313 0 
 305 -314 0 
 309 -314 0 
-305 -309  314 0 
 313 -314 0 
-307  315 0 
-311  315 0 
 307  311 -315 0 
 307 -316 0 
 311 -316 0 
-307 -311  316 0 
 315 -316 0 
-313  317 0 
-315  317 0 
 313  315 -317 0 
 313 -318 0 
 315 -318 0 
-313 -315  318 0 
 317 -318 0 
-314  319 0 
-316  319 0 
 314  316 -319 0 
 314 -320 0 
 316 -320 0 
-314 -316  320 0 
 319 -320 0 
-306  321 0 
-310  321 0 
 306  310 -321 0 
 306 -322 0 
 310 -322 0 
-306 -310  322 0 
 321 -322 0 
-308  323 0 
-312  323 0 
 308  312 -323 0 
 308 -324 0 
 312 -324 0 
-308 -312  324 0 
 323 -324 0 
-321  325 0 
-323  325 0 
 321  323 -325 0 
 321 -326 0 
 323 -326 0 
-321 -323  326 0 
 325 -326 0 
-322  327 0 
-324  327 0 
 322  324 -327 0 
 322 -328 0 
 324 -328 0 
-322 -324  328 0 
 327 -328 0 
-304  329 0 
-296  329 0 
 304  296 -329 0 
 304 -330 0 
 296 -330 0 
-304 -296  330 0 
 329 -330 0 
-302  331 0 
-294  331 0 
 302  294 -331 0 
 302 -332 0 
 294 -332 0 
-302 -294  332 0 
 331 -332 0 
-300  333 0 
-292  333 0 
 300  292 -333 0 
 300 -334 0 
 292 -334 0 
-300 -292  334 0 
 333 -334 0 
-298  335 0 
-290  335 0 
 298  290 -335 0 
 298 -336 0 
 290 -336 0 
-298 -290  336 0 
 335 -336 0 
-329  337 0 
-333  337 0 
 329  333 -337 0 
 329 -338 0 
 333 -338 0 
-329 -333  338 0 
 337 -338 0 
-331  339 0 
-335  339 0 
 331  335 -339 0 
 331 -340 0 
 335 -340 0 
-331 -335  340 0 
 339 -340 0 
-337  341 0 
-339  341 0 
 337  339 -341 0 
 337 -342 0 
 339 -342 0 
-337 -339  342 0 
 341 -342 0 
-338  343 0 
-340  343 0 
 338  340 -343 0 
 338 -344 0 
 340 -344 0 
-338 -340  344 0 
 343 -344 0 
-330  345 0 
-334  345 0 
 330  334 -345 0 
 330 -346 0 
 334 -346 0 
-330 -334  346 0 
 345 -346 0 
-332  347 0 
-336  347 0 
 332  336 -347 0 
 332 -348 0 
 336 -348 0 
-332 -336  348 0 
 347 -348 0 
-345  349 0 
-347  349 0 
 345  347 -349 0 
 345 -350 0 
 347 -350 0 
-345 -347  350 0 
 349 -350 0 
-346  351 0 
-348  351 0 
 346  348 -351 0 
 346 -352 0 
 348 -352 0 
-346 -348  352 0 
 351 -352 0 
-141 -352 0 
-142 -351 0 
-143 -350 0 
-144 -349 0 
-149 -344 0 
-150 -343 0 
-151 -342 0 
-152 -341 0 
-165 -328 0 
-166 -327 0 
-167 -326 0 
-168 -325 0 
-173 -320 0 
-174 -319 0 
-175 -318 0 
-176 -317 0 
-1  353 0 
-3  353 0 
 1  3 -353 0 
 1 -354 0 
 3 -354 0 
-1 -3  354 0 
 353 -354 0 
-5  355 0 
-7  355 0 
 5  7 -355 0 
 5 -356 0 
 7 -356 0 
-5 -7  356 0 
 355 -356 0 
-353  357 0 
-356  357 0 
 353  356 -357 0 
 353 -358 0 
 356 -358 0 
-353 -356  358 0 
 357 -358 0 
-354  359 0 
-355  359 0 
 354  355 -359 0 
 354 -360 0 
 355 -360 0 
-354 -355  360 0 
 359 -360 0 
-357  361 0 
-359  361 0 
 357  359 -361 0 
 357 -362 0 
 359 -362 0 
-357 -359  362 0 
 361 -362 0 
-360  363 0 
-358  363 0 
 360  358 -363 0 
 360 -364 0 
 358 -364 0 
-360 -358  364 0 
 363 -364 0 
-17  365 0 
-19  365 0 
 17  19 -365 0 
 17 -366 0 
 19 -366 0 
-17 -19  366 0 
 365 -366 0 
-21  367 0 
-23  367 0 
 21  23 -367 0 
 21 -368 0 
 23 -368 0 
-21 -23  368 0 
 367 -368 0 
-365  369 0 
-368  369 0 
 365  368 -369 0 
 365 -370 0 
 368 -370 0 
-365 -368  370 0 
 369 -370 0 
-366  371 0 
-367  371 0 
 366  367 -371 0 
 366 -372 0 
 367 -372 0 
-366 -367  372 0 
 371 -372 0 
-369  373 0 
-371  373 0 
 369  371 -373 0 
 369 -374 0 
 371 -374 0 
-369 -371  374 0 
 373 -374 0 
-372  375 0 
-370  375 0 
 372  370 -375 0 
 372 -376 0 
 370 -376 0 
-372 -370  376 0 
 375 -376 0 
-361  377 0 
-376  377 0 
 361  376 -377 0 
 361 -378 0 
 376 -378 0 
-361 -376  378 0 
 377 -378 0 
-362  379 0 
-375  379 0 
 362  375 -379 0 
 362 -380 0 
 375 -380 0 
-362 -375  380 0 
 379 -380 0 
-363  381 0 
-374  381 0 
 363  374 -381 0 
 363 -382 0 
 374 -382 0 
-363 -374  382 0 
 381 -382 0 
-364  383 0 
-373  383 0 
 364  373 -383 0 
 364 -384 0 
 373 -384 0 
-364 -373  384 0 
 383 -384 0 
-377  385 0 
-381  385 0 
 377  381 -385 0 
 377 -386 0 
 381 -386 0 
-377 -381  386 0 
 385 -386 0 
-379  387 0 
-383  387 0 
 379  383 -387 0 
 379 -388 0 
 383 -388 0 
-379 -383  388 0 
 387 -388 0 
-385  389 0 
-387  389 0 
 385  387 -389 0 
 385 -390 0 
 387 -390 0 
-385 -387  390 0 
 389 -390 0 
-386  391 0 
-388  391 0 
 386  388 -391 0 
 386 -392 0 
 388 -392 0 
-386 -388  392 0 
 391 -392 0 
-384  393 0 
-380  393 0 
 384  380 -393 0 
 384 -394 0 
 380 -394 0 
-384 -380  394 0 
 393 -394 0 
-382  395 0 
-378  395 0 
 382  378 -395 0 
 382 -396 0 
 378 -396 0 
-382 -378  396 0 
 395 -396 0 
-393  397 0 
-395  397 0 
 393  395 -397 0 
 393 -398 0 
 395 -398 0 
-393 -395  398 0 
 397 -398 0 
-394  399 0 
-396  399 0 
 394  396 -399 0 
 394 -400 0 
 396 -400 0 
-394 -396  400 0 
 399 -400 0 
-57  401 0 
-59  401 0 
 57  59 -401 0 
 57 -402 0 
 59 -402 0 
-57 -59  402 0 
 401 -402 0 
-61  403 0 
-63  403 0 
 61  63 -403 0 
 61 -404 0 
 63 -404 0 
-61 -63  404 0 
 403 -404 0 
-401  405 0 
-404  405 0 
 401  404 -405 0 
 401 -406 0 
 404 -406 0 
-401 -404  406 0 
 405 -406 0 
-402  407 0 
-403  407 0 
 402  403 -407 0 
 402 -408 0 
 403 -408 0 
-402 -403  408 0 
 407 -408 0 
-405  409 0 
-407  409 0 
 405  407 -409 0 
 405 -410 0 
 407 -410 0 
-405 -407  410 0 
 409 -410 0 
-408  411 0 
-406  411 0 
 408  406 -411 0 
 408 -412 0 
 406 -412 0 
-408 -406  412 0 
 411 -412 0 
-73  413 0 
-75  413 0 
 73  75 -413 0 
 73 -414 0 
 75 -414 0 
-73 -75  414 0 
 413 -414 0 
-77  415 0 
-79  415 0 
 77  79 -415 0 
 77 -416 0 
 79 -416 0 
-77 -79  416 0 
 415 -416 0 
-413  417 0 
-416  417 0 
 413  416 -417 0 
 413 -418 0 
 416 -418 0 
-413 -416  418 0 
 417 -418 0 
-414  419 0 
-415  419 0 
 414  415 -419 0 
 414 -420 0 
 415 -420 0 
-414 -415  420 0 
 419 -420 0 
-417  421 0 
-419  421 0 
 417  419 -421 0 
 417 -422 0 
 419 -422 0 
-417 -419  422 0 
 421 -422 0 
-420  423 0 
-418  423 0 
 420  418 -423 0 
 420 -424 0 
 418 -424 0 
-420 -418  424 0 
 423 -424 0 
-409  425 0 
-424  425 0 
 409  424 -425 0 
 409 -426 0 
 424 -426 0 
-409 -424  426 0 
 425 -426 0 
-410  427 0 
-423  427 0 
 410  423 -427 0 
 410 -428 0 
 423 -428 0 
-410 -423  428 0 
 427 -428 0 
-411  429 0 
-422  429 0 
 411  422 -429 0 
 411 -430 0 
 422 -430 0 
-411 -422  430 0 
 429 -430 0 
-412  431 0 
-421  431 0 
 412  421 -431 0 
 412 -432 0 
 421 -432 0 
-412 -421  432 0 
 431 -432 0 
-425  433 0 
-429  433 0 
 425  429 -433 0 
 425 -434 0 
 429 -434 0 
-425 -429  434 0 
 433 -434 0 
-427  435 0 
-431  435 0 
 427  431 -435 0 
 427 -436 0 
 431 -436 0 
-427 -431  436 0 
 435 -436 0 
-433  437 0 
-435  437 0 
 433  435 -437 0 
 433 -438 0 
 435 -438 0 
-433 -435  438 0 
 437 -438 0 
-434  439 0 
-436  439 0 
 434  436 -439 0 
 434 -440 0 
 436 -440 0 
-434 -436  440 0 
 439 -440 0 
-432  441 0 
-428  441 0 
 432  428 -441 0 
 432 -442 0 
 428 -442 0 
-432 -428  442 0 
 441 -442 0 
-430  443 0 
-426  443 0 
 430  426 -443 0 
 430 -444 0 
 426 -444 0 
-430 -426  444 0 
 443 -444 0 
-441  445 0 
-443  445 0 
 441  443 -445 0 
 441 -446 0 
 443 -446 0 
-441 -443  446 0 
 445 -446 0 
-442  447 0 
-444  447 0 
 442  444 -447 0 
 442 -448 0 
 444 -448 0 
-442 -444  448 0 
 447 -448 0 
-389  449 0 
-448  449 0 
 389  448 -449 0 
 389 -450 0 
 448 -450 0 
-389 -448  450 0 
 449 -450 0 
-390  451 0 
-447  451 0 
 390  447 -451 0 
 390 -452 0 
 447 -452 0 
-390 -447  452 0 
 451 -452 0 
-391  453 0 
-446  453 0 
 391  446 -453 0 
 391 -454 0 
 446 -454 0 
-391 -446  454 0 
 453 -454 0 
-392  455 0 
-445  455 0 
 392  445 -455 0 
 392 -456 0 
 445 -456 0 
-392 -445  456 0 
 455 -456 0 
-397  457 0 
-440  457 0 
 397  440 -457 0 
 397 -458 0 
 440 -458 0 
-397 -440  458 0 
 457 -458 0 
-398  459 0 
-439  459 0 
 398  439 -459 0 
 398 -460 0 
 439 -460 0 
-398 -439  460 0 
 459 -460 0 
-399  461 0 
-438  461 0 
 399  438 -461 0 
 399 -462 0 
 438 -462 0 
-399 -438  462 0 
 461 -462 0 
-400  463 0 
-437  463 0 
 400  437 -463 0 
 400 -464 0 
 437 -464 0 
-400 -437  464 0 
 463 -464 0 
-449  465 0 
-457  465 0 
 449  457 -465 0 
 449 -466 0 
 457 -466 0 
-449 -457  466 0 
 465 -466 0 
-451  467 0 
-459  467 0 
 451  459 -467 0 
 451 -468 0 
 459 -468 0 
-451 -459  468 0 
 467 -468 0 
-453  469 0 
-461  469 0 
 453  461 -469 0 
 453 -470 0 
 461 -470 0 
-453 -461  470 0 
 469 -470 0 
-455  471 0 
-463  471 0 
 455  463 -471 0 
 455 -472 0 
 463 -472 0 
-455 -463  472 0 
 471 -472 0 
-465  473 0 
-469  473 0 
 465  469 -473 0 
 465 -474 0 
 469 -474 0 
-465 -469  474 0 
 473 -474 0 
-467  475 0 
-471  475 0 
 467  471 -475 0 
 467 -476 0 
 471 -476 0 
-467 -471  476 0 
 475 -476 0 
-473  477 0 
-475  477 0 
 473  475 -477 0 
 473 -478 0 
 475 -478 0 
-473 -475  478 0 
 477 -478 0 
-474  479 0 
-476  479 0 
 474  476 -479 0 
 474 -480 0 
 476 -480 0 
-474 -476  480 0 
 479 -480 0 
-466  481 0 
-470  481 0 
 466  470 -481 0 
 466 -482 0 
 470 -482 0 
-466 -470  482 0 
 481 -482 0 
-468  483 0 
-472  483 0 
 468  472 -483 0 
 468 -484 0 
 472 -484 0 
-468 -472  484 0 
 483 -484 0 
-481  485 0 
-483  485 0 
 481  483 -485 0 
 481 -486 0 
 483 -486 0 
-481 -483  486 0 
 485 -486 0 
-482  487 0 
-484  487 0 
 482  484 -487 0 
 482 -488 0 
 484 -488 0 
-482 -484  488 0 
 487 -488 0 
-464  489 0 
-456  489 0 
 464  456 -489 0 
 464 -490 0 
 456 -490 0 
-464 -456  490 0 
 489 -490 0 
-462  491 0 
-454  491 0 
 462  454 -491 0 
 462 -492 0 
 454 -492 0 
-462 -454  492 0 
 491 -492 0 
-460  493 0 
-452  493 0 
 460  452 -493 0 
 460 -494 0 
 452 -494 0 
-460 -452  494 0 
 493 -494 0 
-458  495 0 
-450  495 0 
 458  450 -495 0 
 458 -496 0 
 450 -496 0 
-458 -450  496 0 
 495 -496 0 
-489  497 0 
-493  497 0 
 489  493 -497 0 
 489 -498 0 
 493 -498 0 
-489 -493  498 0 
 497 -498 0 
-491  499 0 
-495  499 0 
 491  495 -499 0 
 491 -500 0 
 495 -500 0 
-491 -495  500 0 
 499 -500 0 
-497  501 0 
-499  501 0 
 497  499 -501 0 
 497 -502 0 
 499 -502 0 
-497 -499  502 0 
 501 -502 0 
-498  503 0 
-500  503 0 
 498  500 -503 0 
 498 -504 0 
 500 -504 0 
-498 -500  504 0 
 503 -504 0 
-490  505 0 
-494  505 0 
 490  494 -505 0 
 490 -506 0 
 494 -506 0 
-490 -494  506 0 
 505 -506 0 
-492  507 0 
-496  507 0 
 492  496 -507 0 
 492 -508 0 
 496 -508 0 
-492 -496  508 0 
 507 -508 0 
-505  509 0 
-507  509 0 
 505  507 -509 0 
 505 -510 0 
 507 -510 0 
-505 -507  510 0 
 509 -510 0 
-506  511 0 
-508  511 0 
 506  508 -511 0 
 506 -512 0 
 508 -512 0 
-506 -508  512 0 
 511 -512 0 
-177  513 0 
-179  513 0 
 177  179 -513 0 
 177 -514 0 
 179 -514 0 
-177 -179  514 0 
 513 -514 0 
-181  515 0 
-183  515 0 
 181  183 -515 0 
 181 -516 0 
 183 -516 0 
-181 -183  516 0 
 515 -516 0 
-513  517 0 
-516  517 0 
 513  516 -517 0 
 513 -518 0 
 516 -518 0 
-513 -516  518 0 
 517 -518 0 
-514  519 0 
-515  519 0 
 514  515 -519 0 
 514 -520 0 
 515 -520 0 
-514 -515  520 0 
 519 -520 0 
-517  521 0 
-519  521 0 
 517  519 -521 0 
 517 -522 0 
 519 -522 0 
-517 -519  522 0 
 521 -522 0 
-520  523 0 
-518  523 0 
 520  518 -523 0 
 520 -524 0 
 518 -524 0 
-520 -518  524 0 
 523 -524 0 
-193  525 0 
-195  525 0 
 193  195 -525 0 
 193 -526 0 
 195 -526 0 
-193 -195  526 0 
 525 -526 0 
-197  527 0 
-199  527 0 
 197  199 -527 0 
 197 -528 0 
 199 -528 0 
-197 -199  528 0 
 527 -528 0 
-525  529 0 
-528  529 0 
 525  528 -529 0 
 525 -530 0 
 528 -530 0 
-525 -528  530 0 
 529 -530 0 
-526  531 0 
-527  531 0 
 526  527 -531 0 
 526 -532 0 
 527 -532 0 
-526 -527  532 0 
 531 -532 0 
-529  533 0 
-531  533 0 
 529  531 -533 0 
 529 -534 0 
 531 -534 0 
-529 -531  534 0 
 533 -534 0 
-532  535 0 
-530  535 0 
 532  530 -535 0 
 532 -536 0 
 530 -536 0 
-532 -530  536 0 
 535 -536 0 
-521  537 0 
-536  537 0 
 521  536 -537 0 
 521 -538 0 
 536 -538 0 
-521 -536  538 0 
 537 -538 0 
-522  539 0 
-535  539 0 
 522  535 -539 0 
 522 -540 0 
 535 -540 0 
-522 -535  540 0 
 539 -540 0 
-523  541 0 
-534  541 0 
 523  534 -541 0 
 523 -542 0 
 534 -542 0 
-523 -534  542 0 
 541 -542 0 
-524  543 0 
-533  543 0 
 524  533 -543 0 
 524 -544 0 
 533 -544 0 
-524 -533  544 0 
 543 -544 0 
-537  545 0 
-541  545 0 
 537  541 -545 0 
 537 -546 0 
 541 -546 0 
-537 -541  546 0 
 545 -546 0 
-539  547 0 
-543  547 0 
 539  543 -547 0 
 539 -548 0 
 543 -548 0 
-539 -543  548 0 
 547 -548 0 
-545  549 0 
-547  549 0 
 545  547 -549 0 
 545 -550 0 
 547 -550 0 
-545 -547  550 0 
 549 -550 0 
-546  551 0 
-548  551 0 
 546  548 -551 0 
 546 -552 0 
 548 -552 0 
-546 -548  552 0 
 551 -552 0 
-544  553 0 
-540  553 0 
 544  540 -553 0 
 544 -554 0 
 540 -554 0 
-544 -540  554 0 
 553 -554 0 
-542  555 0 
-538  555 0 
 542  538 -555 0 
 542 -556 0 
 538 -556 0 
-542 -538  556 0 
 555 -556 0 
-553  557 0 
-555  557 0 
 553  555 -557 0 
 553 -558 0 
 555 -558 0 
-553 -555  558 0 
 557 -558 0 
-554  559 0 
-556  559 0 
 554  556 -559 0 
 554 -560 0 
 556 -560 0 
-554 -556  560 0 
 559 -560 0 
-233  561 0 
-235  561 0 
 233  235 -561 0 
 233 -562 0 
 235 -562 0 
-233 -235  562 0 
 561 -562 0 
-237  563 0 
-239  563 0 
 237  239 -563 0 
 237 -564 0 
 239 -564 0 
-237 -239  564 0 
 563 -564 0 
-561  565 0 
-564  565 0 
 561  564 -565 0 
 561 -566 0 
 564 -566 0 
-561 -564  566 0 
 565 -566 0 
-562  567 0 
-563  567 0 
 562  563 -567 0 
 562 -568 0 
 563 -568 0 
-562 -563  568 0 
 567 -568 0 
-565  569 0 
-567  569 0 
 565  567 -569 0 
 565 -570 0 
 567 -570 0 
-565 -567  570 0 
 569 -570 0 
-568  571 0 
-566  571 0 
 568  566 -571 0 
 568 -572 0 
 566 -572 0 
-568 -566  572 0 
 571 -572 0 
-249  573 0 
-251  573 0 
 249  251 -573 0 
 249 -574 0 
 251 -574 0 
-249 -251  574 0 
 573 -574 0 
-253  575 0 
-255  575 0 
 253  255 -575 0 
 253 -576 0 
 255 -576 0 
-253 -255  576 0 
 575 -576 0 
-573  577 0 
-576  577 0 
 573  576 -577 0 
 573 -578 0 
 576 -578 0 
-573 -576  578 0 
 577 -578 0 
-574  579 0 
-575  579 0 
 574  575 -579 0 
 574 -580 0 
 575 -580 0 
-574 -575  580 0 
 579 -580 0 
-577  581 0 
-579  581 0 
 577  579 -581 0 
 577 -582 0 
 579 -582 0 
-577 -579  582 0 
 581 -582 0 
-580  583 0 
-578  583 0 
 580  578 -583 0 
 580 -584 0 
 578 -584 0 
-580 -578  584 0 
 583 -584 0 
-569  585 0 
-584  585 0 
 569  584 -585 0 
 569 -586 0 
 584 -586 0 
-569 -584  586 0 
 585 -586 0 
-570  587 0 
-583  587 0 
 570  583 -587 0 
 570 -588 0 
 583 -588 0 
-570 -583  588 0 
 587 -588 0 
-571  589 0 
-582  589 0 
 571  582 -589 0 
 571 -590 0 
 582 -590 0 
-571 -582  590 0 
 589 -590 0 
-572  591 0 
-581  591 0 
 572  581 -591 0 
 572 -592 0 
 581 -592 0 
-572 -581  592 0 
 591 -592 0 
-585  593 0 
-589  593 0 
 585  589 -593 0 
 585 -594 0 
 589 -594 0 
-585 -589  594 0 
 593 -594 0 
-587  595 0 
-591  595 0 
 587  591 -595 0 
 587 -596 0 
 591 -596 0 
-587 -591  596 0 
 595 -596 0 
-593  597 0 
-595  597 0 
 593  595 -597 0 
 593 -598 0 
 595 -598 0 
-593 -595  598 0 
 597 -598 0 
-594  599 0 
-596  599 0 
 594  596 -599 0 
 594 -600 0 
 596 -600 0 
-594 -596  600 0 
 599 -600 0 
-592  601 0 
-588  601 0 
 592  588 -601 0 
 592 -602 0 
 588 -602 0 
-592 -588  602 0 
 601 -602 0 
-590  603 0 
-586  603 0 
 590  586 -603 0 
 590 -604 0 
 586 -604 0 
-590 -586  604 0 
 603 -604 0 
-601  605 0 
-603  605 0 
 601  603 -605 0 
 601 -606 0 
 603 -606 0 
-601 -603  606 0 
 605 -606 0 
-602  607 0 
-604  607 0 
 602  604 -607 0 
 602 -608 0 
 604 -608 0 
-602 -604  608 0 
 607 -608 0 
-549  609 0 
-608  609 0 
 549  608 -609 0 
 549 -610 0 
 608 -610 0 
-549 -608  610 0 
 609 -610 0 
-550  611 0 
-607  611 0 
 550  607 -611 0 
 550 -612 0 
 607 -612 0 
-550 -607  612 0 
 611 -612 0 
-551  613 0 
-606  613 0 
 551  606 -613 0 
 551 -614 0 
 606 -614 0 
-551 -606  614 0 
 613 -614 0 
-552  615 0 
-605  615 0 
 552  605 -615 0 
 552 -616 0 
 605 -616 0 
-552 -605  616 0 
 615 -616 0 
-557  617 0 
-600  617 0 
 557  600 -617 0 
 557 -618 0 
 600 -618 0 
-557 -600  618 0 
 617 -618 0 
-558  619 0 
-599  619 0 
 558  599 -619 0 
 558 -620 0 
 599 -620 0 
-558 -599  620 0 
 619 -620 0 
-559  621 0 
-598  621 0 
 559  598 -621 0 
 559 -622 0 
 598 -622 0 
-559 -598  622 0 
 621 -622 0 
-560  623 0 
-597  623 0 
 560  597 -623 0 
 560 -624 0 
 597 -624 0 
-560 -597  624 0 
 623 -624 0 
-609  625 0 
-617  625 0 
 609  617 -625 0 
 609 -626 0 
 617 -626 0 
-609 -617  626 0 
 625 -626 0 
-611  627 0 
-619  627 0 
 611  619 -627 0 
 611 -628 0 
 619 -628 0 
-611 -619  628 0 
 627 -628 0 
-613  629 0 
-621  629 0 
 613  621 -629 0 
 613 -630 0 
 621 -630 0 
-613 -621  630 0 
 629 -630 0 
-615  631 0 
-623  631 0 
 615  623 -631 0 
 615 -632 0 
 623 -632 0 
-615 -623  632 0 
 631 -632 0 
-625  633 0 
-629  633 0 
 625  629 -633 0 
 625 -634 0 
 629 -634 0 
-625 -629  634 0 
 633 -634 0 
-627  635 0 
-631  635 0 
 627  631 -635 0 
 627 -636 0 
 631 -636 0 
-627 -631  636 0 
 635 -636 0 
-633  637 0 
-635  637 0 
 633  635 -637 0 
 633 -638 0 
 635 -638 0 
-633 -635  638 0 
 637 -638 0 
-634  639 0 
-636  639 0 
 634  636 -639 0 
 634 -640 0 
 636 -640 0 
-634 -636  640 0 
 639 -640 0 
-626  641 0 
-630  641 0 
 626  630 -641 0 
 626 -642 0 
 630 -642 0 
-626 -630  642 0 
 641 -642 0 
-628  643 0 
-632  643 0 
 628  632 -643 0 
 628 -644 0 
 632 -644 0 
-628 -632  644 0 
 643 -644 0 
-641  645 0 
-643  645 0 
 641  643 -645 0 
 641 -646 0 
 643 -646 0 
-641 -643  646 0 
 645 -646 0 
-642  647 0 
-644  647 0 
 642  644 -647 0 
 642 -648 0 
 644 -648 0 
-642 -644  648 0 
 647 -648 0 
-624  649 0 
-616  649 0 
 624  616 -649 0 
 624 -650 0 
 616 -650 0 
-624 -616  650 0 
 649 -650 0 
-622  651 0 
-614  651 0 
 622  614 -651 0 
 622 -652 0 
 614 -652 0 
-622 -614  652 0 
 651 -652 0 
-620  653 0 
-612  653 0 
 620  612 -653 0 
 620 -654 0 
 612 -654 0 
-620 -612  654 0 
 653 -654 0 
-618  655 0 
-610  655 0 
 618  610 -655 0 
 618 -656 0 
 610 -656 0 
-618 -610  656 0 
 655 -656 0 
-649  657 0 
-653  657 0 
 649  653 -657 0 
 649 -658 0 
 653 -658 0 
-649 -653  658 0 
 657 -658 0 
-651  659 0 
-655  659 0 
 651  655 -659 0 
 651 -660 0 
 655 -660 0 
-651 -655  660 0 
 659 -660 0 
-657  661 0 
-659  661 0 
 657  659 -661 0 
 657 -662 0 
 659 -662 0 
-657 -659  662 0 
 661 -662 0 
-658  663 0 
-660  663 0 
 658  660 -663 0 
 658 -664 0 
 660 -664 0 
-658 -660  664 0 
 663 -664 0 
-650  665 0 
-654  665 0 
 650  654 -665 0 
 650 -666 0 
 654 -666 0 
-650 -654  666 0 
 665 -666 0 
-652  667 0 
-656  667 0 
 652  656 -667 0 
 652 -668 0 
 656 -668 0 
-652 -656  668 0 
 667 -668 0 
-665  669 0 
-667  669 0 
 665  667 -669 0 
 665 -670 0 
 667 -670 0 
-665 -667  670 0 
 669 -670 0 
-666  671 0 
-668  671 0 
 666  668 -671 0 
 666 -672 0 
 668 -672 0 
-666 -668  672 0 
 671 -672 0 
 477  672 0 
 477 -673 0 
 672 -673 0 
-477 -672  673 0 
 674 -673 0 
 478  671 0 
 478 -675 0 
 671 -675 0 
-478 -671  675 0 
 674 -675 0 
 479  670 0 
 479 -676 0 
 670 -676 0 
-479 -670  676 0 
 674 -676 0 
 480  669 0 
 480 -677 0 
 669 -677 0 
-480 -669  677 0 
 674 -677 0 
 485  664 0 
 485 -678 0 
 664 -678 0 
-485 -664  678 0 
 674 -678 0 
 486  663 0 
 486 -679 0 
 663 -679 0 
-486 -663  679 0 
 674 -679 0 
 487  662 0 
 487 -680 0 
 662 -680 0 
-487 -662  680 0 
 674 -680 0 
 488  661 0 
 488 -681 0 
 661 -681 0 
-488 -661  681 0 
 674 -681 0 
 501  648 0 
 501 -682 0 
 648 -682 0 
-501 -648  682 0 
 674 -682 0 
 502  647 0 
 502 -683 0 
 647 -683 0 
-502 -647  683 0 
 674 -683 0 
 503  646 0 
 503 -684 0 
 646 -684 0 
-503 -646  684 0 
 674 -684 0 
 504  645 0 
 504 -685 0 
 645 -685 0 
-504 -645  685 0 
 674 -685 0 
 509  640 0 
 509 -686 0 
 640 -686 0 
-509 -640  686 0 
 674 -686 0 
 510  639 0 
 510 -687 0 
 639 -687 0 
-510 -639  687 0 
 674 -687 0 
 511  638 0 
 511 -688 0 
 638 -688 0 
-511 -638  688 0 
 674 -688 0 
 512  637 0 
 512 -689 0 
 637 -689 0 
-512 -637  689 0 
 674 -689 0 
-689  690 0 
-681  690 0 
 689  681 -690 0 
-688  691 0 
-680  691 0 
 688  680 -691 0 
-687  692 0 
-679  692 0 
 687  679 -692 0 
-686  693 0 
-678  693 0 
 686  678 -693 0 
-685  694 0 
-677  694 0 
 685  677 -694 0 
-684  695 0 
-676  695 0 
 684  676 -695 0 
-683  696 0 
-675  696 0 
 683  675 -696 0 
-682  697 0 
-673  697 0 
 682  673 -697 0 
-690  698 0 
-694  698 0 
 690  694 -698 0 
-691  699 0 
-695  699 0 
 691  695 -699 0 
-692  700 0 
-696  700 0 
 692  696 -700 0 
-693  701 0 
-697  701 0 
 693  697 -701 0 
-698  702 0 
-700  702 0 
 698  700 -702 0 
-699  703 0 
-701  703 0 
 699  701 -703 0 
 702  703 0 
